min:  + 114 x0_3 + 108 x0_1 + 102 x1_2 + 102 x2_1 + 94 x2_3 + 94 x3_2 + 109 x4_3 + 109 x3_4 + 34 x5_6 + 120 x7_4 + 120 x4_7 + 65 x7_5 + 65 x5_7 + 74 x10_6 + 74 x10_9 + 74 x9_10 + 67 x9_8 + 67 x8_9 + 85 x11_7 + 85 x7_11 + 111 x12_7 + 111 x7_12 + 102 x13_4 + 102 x4_13 + 112 x13_12 + 112 x12_13 + 62 x14_13 + 62 x13_14 + 66 x15_14 + 66 x14_15 + 54 x16_15 + 54 x15_16 + 169 x16_12 + 169 x12_16 + 76 x12_11 + 76 x11_12 + 130 x18_12 + 130 x12_18 + 170 x18_17 + 170 x17_18 + 58 x19_16 + 58 x16_19 + 135 x19_18 + 135 x18_19 + 140 x19_12 + 140 x12_19 + 82 x20_16 + 82 x16_20 + 108 x21_20 + 108 x20_21 + 216 x22_18 + 216 x18_22 + 201 x22_19 + 201 x19_22 + 214 x23_18 + 214 x18_23 + 295 x24_23 + 295 x23_24 + 151 x22_23 + 151 x23_22;
KN0s:  +  x0_3 +  x0_1 >= 1;
KN1:  +  x0_1 -  x1_2 +  x2_1 >= 0;
KN2:  +  x1_2 -  x2_1 -  x2_3 +  x3_2 >= 0;
KN3:  +  x0_3 +  x2_3 -  x3_2 +  x4_3 -  x3_4 >= 0;
KN4:  -  x4_3 +  x3_4 +  x7_4 -  x4_7 +  x13_4 -  x4_13 >= 0;
KN5:  -  x5_6 +  x7_5 -  x5_7 >= 0;
KN6z:  +  x5_6 +  x10_6 >= 1;
KN7:  -  x7_4 +  x4_7 -  x7_5 +  x5_7 +  x11_7 -  x7_11 +  x12_7 -  x7_12 >= 0;
KN8:  +  x9_8 -  x8_9 >= 0;
KN9:  +  x10_9 -  x9_10 -  x9_8 +  x8_9 >= 0;
KN10:  -  x10_6 -  x10_9 +  x9_10 >= 0;
KN11:  -  x11_7 +  x7_11 +  x12_11 -  x11_12 >= 0;
KN12:  -  x12_7 +  x7_12 +  x13_12 -  x12_13 +  x16_12 -  x12_16 -  x12_11 +  x11_12 +  x18_12 -  x12_18 +  x19_12 -  x12_19 >= 0;
KN13:  -  x13_4 +  x4_13 -  x13_12 +  x12_13 +  x14_13 -  x13_14 >= 0;
KN14:  -  x14_13 +  x13_14 +  x15_14 -  x14_15 >= 0;
KN15:  -  x15_14 +  x14_15 +  x16_15 -  x15_16 >= 0;
KN16:  -  x16_15 +  x15_16 -  x16_12 +  x12_16 +  x19_16 -  x16_19 +  x20_16 -  x16_20 >= 0;
KN17:  +  x18_17 -  x17_18 >= 0;
KN18:  -  x18_12 +  x12_18 -  x18_17 +  x17_18 +  x19_18 -  x18_19 +  x22_18 -  x18_22 +  x23_18 -  x18_23 >= 0;
KN19:  -  x19_16 +  x16_19 -  x19_18 +  x18_19 -  x19_12 +  x12_19 +  x22_19 -  x19_22 >= 0;
KN20:  -  x20_16 +  x16_20 +  x21_20 -  x20_21 >= 0;
KN21:  -  x21_20 +  x20_21 >= 0;
KN22:  -  x22_18 +  x18_22 -  x22_19 +  x19_22 -  x22_23 +  x23_22 >= 0;
KN23:  -  x23_18 +  x18_23 +  x24_23 -  x23_24 +  x22_23 -  x23_22 >= 0;
KN24:  -  x24_23 +  x23_24 >= 0;
